p tw 384 1504
1 33
2 34
3 35
4 36
5 37
6 38
7 39
8 40
9 41
10 42
11 43
12 44
13 45
14 46
15 47
16 48
17 49
18 50
19 51
20 52
21 53
22 54
23 55
24 56
25 57
26 58
27 59
28 60
29 61
30 62
31 63
32 64
33 75
33 94
33 95
33 96
33 97
34 98
34 99
34 100
34 101
34 102
35 85
35 107
35 111
35 112
35 113
36 71
36 116
36 136
36 137
36 138
37 114
37 145
37 148
37 149
37 150
38 127
38 139
38 151
38 156
38 157
39 85
39 86
39 87
39 88
39 89
40 109
40 120
40 156
40 158
40 160
41 90
41 107
41 108
41 109
41 110
42 70
42 122
42 129
42 132
42 133
43 65
43 66
43 67
43 68
43 69
44 65
44 90
44 91
44 92
44 93
45 112
45 134
45 141
45 143
45 144
46 68
46 123
46 132
46 151
46 152
47 87
47 111
47 129
47 130
47 131
48 80
48 81
48 82
48 83
48 84
49 72
49 105
49 136
49 139
49 140
50 67
50 119
50 122
50 123
50 124
51 80
51 99
51 119
51 120
51 121
52 94
52 103
52 104
52 105
52 106
53 78
53 130
53 146
53 153
53 155
54 77
54 101
54 145
54 146
54 147
55 96
55 104
55 125
55 127
55 128
56 88
56 137
56 149
56 158
56 159
57 70
57 71
57 72
57 73
57 74
58 76
58 81
58 108
58 134
58 135
59 83
59 143
59 148
59 153
59 154
60 75
60 76
60 77
60 78
60 79
61 73
61 82
61 117
61 141
61 142
62 92
62 95
62 100
62 125
62 126
63 91
63 98
63 103
63 114
63 115
64 66
64 86
64 116
64 117
64 118
65 66
65 67
65 68
65 69
65 90
65 91
65 92
65 93
66 67
66 68
66 69
66 86
66 116
66 117
66 118
67 68
67 69
67 119
67 122
67 123
67 124
68 69
68 123
68 132
68 151
68 152
69 161
69 162
69 163
69 164
69 165
70 71
70 72
70 73
70 74
70 122
70 129
70 132
70 133
71 72
71 73
71 74
71 116
71 136
71 137
71 138
72 73
72 74
72 105
72 136
72 139
72 140
73 74
73 82
73 117
73 141
73 142
74 166
74 167
74 168
74 169
74 170
75 76
75 77
75 78
75 79
75 94
75 95
75 96
75 97
76 77
76 78
76 79
76 81
76 108
76 134
76 135
77 78
77 79
77 101
77 145
77 146
77 147
78 79
78 130
78 146
78 153
78 155
79 171
79 172
79 173
79 174
79 175
80 81
80 82
80 83
80 84
80 99
80 119
80 120
80 121
81 82
81 83
81 84
81 108
81 134
81 135
82 83
82 84
82 117
82 141
82 142
83 84
83 143
83 148
83 153
83 154
84 176
84 177
84 178
84 179
84 180
85 86
85 87
85 88
85 89
85 107
85 111
85 112
85 113
86 87
86 88
86 89
86 116
86 117
86 118
87 88
87 89
87 111
87 129
87 130
87 131
88 89
88 137
88 149
88 158
88 159
89 181
89 182
89 183
89 184
89 185
90 91
90 92
90 93
90 107
90 108
90 109
90 110
91 92
91 93
91 98
91 103
91 114
91 115
92 93
92 95
92 100
92 125
92 126
93 161
93 186
93 187
93 188
93 189
94 95
94 96
94 97
94 103
94 104
94 105
94 106
95 96
95 97
95 100
95 125
95 126
96 97
96 104
96 125
96 127
96 128
97 171
97 190
97 191
97 192
97 193
98 99
98 100
98 101
98 102
98 103
98 114
98 115
99 100
99 101
99 102
99 119
99 120
99 121
100 101
100 102
100 125
100 126
101 102
101 145
101 146
101 147
102 194
102 195
102 196
102 197
102 198
103 104
103 105
103 106
103 114
103 115
104 105
104 106
104 125
104 127
104 128
105 106
105 136
105 139
105 140
106 190
106 199
106 200
106 201
106 202
107 108
107 109
107 110
107 111
107 112
107 113
108 109
108 110
108 134
108 135
109 110
109 120
109 156
109 158
109 160
110 186
110 203
110 204
110 205
110 206
111 112
111 113
111 129
111 130
111 131
112 113
112 134
112 141
112 143
112 144
113 181
113 203
113 207
113 208
113 209
114 115
114 145
114 148
114 149
114 150
115 187
115 194
115 199
115 210
115 211
116 117
116 118
116 136
116 137
116 138
117 118
117 141
117 142
118 162
118 182
118 212
118 213
118 214
119 120
119 121
119 122
119 123
119 124
120 121
120 156
120 158
120 160
121 176
121 195
121 215
121 216
121 217
122 123
122 124
122 129
122 132
122 133
123 124
123 132
123 151
123 152
124 163
124 215
124 218
124 219
124 220
125 126
125 127
125 128
126 188
126 191
126 196
126 221
126 222
127 128
127 139
127 151
127 156
127 157
128 192
128 200
128 221
128 223
128 224
129 130
129 131
129 132
129 133
130 131
130 146
130 153
130 155
131 183
131 207
131 225
131 226
131 227
132 133
132 151
132 152
133 166
133 218
133 225
133 228
133 229
134 135
134 141
134 143
134 144
135 172
135 177
135 204
135 230
135 231
136 137
136 138
136 139
136 140
137 138
137 149
137 158
137 159
138 167
138 212
138 232
138 233
138 234
139 140
139 151
139 156
139 157
140 168
140 201
140 232
140 235
140 236
141 142
141 143
141 144
142 169
142 178
142 213
142 237
142 238
143 144
143 148
143 153
143 154
144 208
144 230
144 237
144 239
144 240
145 146
145 147
145 148
145 149
145 150
146 147
146 153
146 155
147 173
147 197
147 241
147 242
147 243
148 149
148 150
148 153
148 154
149 150
149 158
149 159
150 210
150 241
150 244
150 245
150 246
151 152
151 156
151 157
152 164
152 219
152 228
152 247
152 248
153 154
153 155
154 179
154 239
154 244
154 249
154 250
155 174
155 226
155 242
155 249
155 251
156 157
156 158
156 160
157 223
157 235
157 247
157 252
157 253
158 159
158 160
159 184
159 233
159 245
159 254
159 255
160 205
160 216
160 252
160 254
160 256
161 162
161 163
161 164
161 165
161 186
161 187
161 188
161 189
162 163
162 164
162 165
162 182
162 212
162 213
162 214
163 164
163 165
163 215
163 218
163 219
163 220
164 165
164 219
164 228
164 247
164 248
165 257
165 258
165 259
165 260
165 261
166 167
166 168
166 169
166 170
166 218
166 225
166 228
166 229
167 168
167 169
167 170
167 212
167 232
167 233
167 234
168 169
168 170
168 201
168 232
168 235
168 236
169 170
169 178
169 213
169 237
169 238
170 262
170 263
170 264
170 265
170 266
171 172
171 173
171 174
171 175
171 190
171 191
171 192
171 193
172 173
172 174
172 175
172 177
172 204
172 230
172 231
173 174
173 175
173 197
173 241
173 242
173 243
174 175
174 226
174 242
174 249
174 251
175 267
175 268
175 269
175 270
175 271
176 177
176 178
176 179
176 180
176 195
176 215
176 216
176 217
177 178
177 179
177 180
177 204
177 230
177 231
178 179
178 180
178 213
178 237
178 238
179 180
179 239
179 244
179 249
179 250
180 272
180 273
180 274
180 275
180 276
181 182
181 183
181 184
181 185
181 203
181 207
181 208
181 209
182 183
182 184
182 185
182 212
182 213
182 214
183 184
183 185
183 207
183 225
183 226
183 227
184 185
184 233
184 245
184 254
184 255
185 277
185 278
185 279
185 280
185 281
186 187
186 188
186 189
186 203
186 204
186 205
186 206
187 188
187 189
187 194
187 199
187 210
187 211
188 189
188 191
188 196
188 221
188 222
189 257
189 282
189 283
189 284
189 285
190 191
190 192
190 193
190 199
190 200
190 201
190 202
191 192
191 193
191 196
191 221
191 222
192 193
192 200
192 221
192 223
192 224
193 267
193 286
193 287
193 288
193 289
194 195
194 196
194 197
194 198
194 199
194 210
194 211
195 196
195 197
195 198
195 215
195 216
195 217
196 197
196 198
196 221
196 222
197 198
197 241
197 242
197 243
198 290
198 291
198 292
198 293
198 294
199 200
199 201
199 202
199 210
199 211
200 201
200 202
200 221
200 223
200 224
201 202
201 232
201 235
201 236
202 286
202 295
202 296
202 297
202 298
203 204
203 205
203 206
203 207
203 208
203 209
204 205
204 206
204 230
204 231
205 206
205 216
205 252
205 254
205 256
206 282
206 299
206 300
206 301
206 302
207 208
207 209
207 225
207 226
207 227
208 209
208 230
208 237
208 239
208 240
209 277
209 299
209 303
209 304
209 305
210 211
210 241
210 244
210 245
210 246
211 283
211 290
211 295
211 306
211 307
212 213
212 214
212 232
212 233
212 234
213 214
213 237
213 238
214 258
214 278
214 308
214 309
214 310
215 216
215 217
215 218
215 219
215 220
216 217
216 252
216 254
216 256
217 272
217 291
217 311
217 312
217 313
218 219
218 220
218 225
218 228
218 229
219 220
219 228
219 247
219 248
220 259
220 311
220 314
220 315
220 316
221 222
221 223
221 224
222 284
222 287
222 292
222 317
222 318
223 224
223 235
223 247
223 252
223 253
224 288
224 296
224 317
224 319
224 320
225 226
225 227
225 228
225 229
226 227
226 242
226 249
226 251
227 279
227 303
227 321
227 322
227 323
228 229
228 247
228 248
229 262
229 314
229 321
229 324
229 325
230 231
230 237
230 239
230 240
231 268
231 273
231 300
231 326
231 327
232 233
232 234
232 235
232 236
233 234
233 245
233 254
233 255
234 263
234 308
234 328
234 329
234 330
235 236
235 247
235 252
235 253
236 264
236 297
236 328
236 331
236 332
237 238
237 239
237 240
238 265
238 274
238 309
238 333
238 334
239 240
239 244
239 249
239 250
240 304
240 326
240 333
240 335
240 336
241 242
241 243
241 244
241 245
241 246
242 243
242 249
242 251
243 269
243 293
243 337
243 338
243 339
244 245
244 246
244 249
244 250
245 246
245 254
245 255
246 306
246 337
246 340
246 341
246 342
247 248
247 252
247 253
248 260
248 315
248 324
248 343
248 344
249 250
249 251
250 275
250 335
250 340
250 345
250 346
251 270
251 322
251 338
251 345
251 347
252 253
252 254
252 256
253 319
253 331
253 343
253 348
253 349
254 255
254 256
255 280
255 329
255 341
255 350
255 351
256 301
256 312
256 348
256 350
256 352
257 258
257 259
257 260
257 261
257 282
257 283
257 284
257 285
258 259
258 260
258 261
258 278
258 308
258 309
258 310
259 260
259 261
259 311
259 314
259 315
259 316
260 261
260 315
260 324
260 343
260 344
261 374
262 263
262 264
262 265
262 266
262 314
262 321
262 324
262 325
263 264
263 265
263 266
263 308
263 328
263 329
263 330
264 265
264 266
264 297
264 328
264 331
264 332
265 266
265 274
265 309
265 333
265 334
266 360
267 268
267 269
267 270
267 271
267 286
267 287
267 288
267 289
268 269
268 270
268 271
268 273
268 300
268 326
268 327
269 270
269 271
269 293
269 337
269 338
269 339
270 271
270 322
270 338
270 345
270 347
271 357
272 273
272 274
272 275
272 276
272 291
272 311
272 312
272 313
273 274
273 275
273 276
273 300
273 326
273 327
274 275
274 276
274 309
274 333
274 334
275 276
275 335
275 340
275 345
275 346
276 369
277 278
277 279
277 280
277 281
277 299
277 303
277 304
277 305
278 279
278 280
278 281
278 308
278 309
278 310
279 280
279 281
279 303
279 321
279 322
279 323
280 281
280 329
280 341
280 350
280 351
281 378
282 283
282 284
282 285
282 299
282 300
282 301
282 302
283 284
283 285
283 290
283 295
283 306
283 307
284 285
284 287
284 292
284 317
284 318
285 373
286 287
286 288
286 289
286 295
286 296
286 297
286 298
287 288
287 289
287 292
287 317
287 318
288 289
288 296
288 317
288 319
288 320
289 384
290 291
290 292
290 293
290 294
290 295
290 306
290 307
291 292
291 293
291 294
291 311
291 312
291 313
292 293
292 294
292 317
292 318
293 294
293 337
293 338
293 339
294 383
295 296
295 297
295 298
295 306
295 307
296 297
296 298
296 317
296 319
296 320
297 298
297 328
297 331
297 332
298 365
299 300
299 301
299 302
299 303
299 304
299 305
300 301
300 302
300 326
300 327
301 302
301 312
301 348
301 350
301 352
302 376
303 304
303 305
303 321
303 322
303 323
304 305
304 326
304 333
304 335
304 336
305 382
306 307
306 337
306 340
306 341
306 342
307 354
308 309
308 310
308 328
308 329
308 330
309 310
309 333
309 334
310 353
311 312
311 313
311 314
311 315
311 316
312 313
312 348
312 350
312 352
313 366
314 315
314 316
314 321
314 324
314 325
315 316
315 324
315 343
315 344
316 367
317 318
317 319
317 320
318 355
319 320
319 331
319 343
319 348
319 349
320 362
321 322
321 323
321 324
321 325
322 323
322 338
322 345
322 347
323 370
324 325
324 343
324 344
325 375
326 327
326 333
326 335
326 336
327 359
328 329
328 330
328 331
328 332
329 330
329 341
329 350
329 351
330 381
331 332
331 343
331 348
331 349
332 368
333 334
333 335
333 336
334 356
335 336
335 340
335 345
335 346
336 372
337 338
337 339
337 340
337 341
337 342
338 339
338 345
338 347
339 363
340 341
340 342
340 345
340 346
341 342
341 350
341 351
342 380
343 344
343 348
343 349
344 371
345 346
345 347
346 358
347 364
348 349
348 350
348 352
349 379
350 351
350 352
351 361
352 377
